p cnf 391
136
-7 1
-7 2
-1 -2 7
-8 2
-8 -7
-2 7 8
-9 -2
-9 7
2 -7 9
-10 -8
-10 -9
8 9 10
-11 2
-11 7
-2 -7 11
-12 1
-12 -10
-1 10 12
-13 2
-13 -10
-2 10 13
-14 1
-14 11
-1 -11 14
-15 2
-15 11
-2 -11 15
-16 13
-16 -14
-13 14 16
-17 -13
-17 14
13 -14 17
-18 -16
-18 -17
16 17 18
-19 13
-19 14
-13 -14 19
-20 15
-20 -19
-15 19 20
-21 -15
-21 19
15 -19 21
-22 -20
-22 -21
20 21 22
-23 15
-23 19
-15 -19 23
-24 3
-24 4
-3 -4 24
-25 4
-25 -24
-4 24 25
-26 -4
-26 24
4 -24 26
-27 -25
-27 -26
25 26 27
-28 4
-28 24
-4 -24 28
-29 3
-29 -27
-3 27 29
-30 4
-30 -27
-4 27 30
-31 3
-31 28
-3 -28 31
-32 4
-32 28
-4 -28 32
-33 30
-33 -31
-30 31 33
-34 -30
-34 31
30 -31 34
-35 -33
-35 -34
33 34 35
-36 30
-36 31
-30 -31 36
-37 32
-37 -36
-32 36 37
-38 -32
-38 36
32 -36 38
-39 -37
-39 -38
37 38 39
-40 32
-40 36
-32 -36 40
-41 5
-41 6
-5 -6 41
-42 6
-42 -41
-6 41 42
-43 -6
-43 41
6 -41 43
-44 -42
-44 -43
42 43 44
-45 6
-45 41
-6 -41 45
-46 5
-46 -44
-5 44 46
-47 6
-47 -44
-6 44 47
-48 5
-48 45
-5 -45 48
-49 6
-49 45
-6 -45 49
-50 47
-50 -48
-47 48 50
-51 -47
-51 48
47 -48 51
-52 -50
-52 -51
50 51 52
-53 47
-53 48
-47 -48 53
-54 49
-54 -53
-49 53 54
-55 -49
-55 53
49 -53 55
-56 -54
-56 -55
54 55 56
-57 49
-57 53
-49 -53 57
-58 1
-58 -3
-1 3 58
-59 -1
-59 3
1 -3 59
-60 -58
-60 -59
58 59 60
-61 1
-61 3
-1 -3 61
-62 7
-62 -24
-7 24 62
-63 -7
-63 24
7 -24 63
-64 -62
-64 -63
62 63 64
-65 7
-65 24
-7 -24 65
-66 -61
-66 -64
61 64 66
-67 61
-67 64
-61 -64 67
-68 -66
-68 -67
66 67 68
-69 61
-69 -64
-61 64 69
-70 -65
-70 -69
65 69 70
-71 12
-71 -29
-12 29 71
-72 -12
-72 29
12 -29 72
-73 -71
-73 -72
71 72 73
-74 12
-74 29
-12 -29 74
-75 70
-75 -73
-70 73 75
-76 -70
-76 73
70 -73 76
-77 -75
-77 -76
75 76 77
-78 -70
-78 -73
70 73 78
-79 -74
-79 -78
74 78 79
-80 -18
-80 35
18 -35 80
-81 18
-81 -35
-18 35 81
-82 -80
-82 -81
80 81 82
-83 -18
-83 -35
18 35 83
-84 79
-84 -82
-79 82 84
-85 -79
-85 82
79 -82 85
-86 -84
-86 -85
84 85 86
-87 -79
-87 -82
79 82 87
-88 -83
-88 -87
83 87 88
-89 -22
-89 39
22 -39 89
-90 22
-90 -39
-22 39 90
-91 -89
-91 -90
89 90 91
-92 -22
-92 -39
22 39 92
-93 88
-93 -91
-88 91 93
-94 -88
-94 91
88 -91 94
-95 -93
-95 -94
93 94 95
-96 -88
-96 -91
88 91 96
-97 -92
-97 -96
92 96 97
-98 23
-98 -40
-23 40 98
-99 -23
-99 40
23 -40 99
-100 -98
-100 -99
98 99 100
-101 23
-101 40
-23 -40 101
-102 97
-102 -100
-97 100 102
-103 -97
-103 100
97 -100 103
-104 -102
-104 -103
102 103 104
-105 -97
-105 -100
97 100 105
-106 -101
-106 -105
101 105 106
-107 5
-107 -60
-5 60 107
-108 -5
-108 60
5 -60 108
-109 -107
-109 -108
107 108 109
-110 41
-110 -68
-41 68 110
-111 -41
-111 68
41 -68 111
-112 -110
-112 -111
110 111 112
-113 46
-113 -77
-46 77 113
-114 -46
-114 77
46 -77 114
-115 -113
-115 -114
113 114 115
-116 -52
-116 -86
52 86 116
-117 52
-117 86
-52 -86 117
-118 -116
-118 -117
116 117 118
-119 -56
-119 -95
56 95 119
-120 56
-120 95
-56 -95 120
-121 -119
-121 -120
119 120 121
-122 57
-122 -104
-57 104 122
-123 -57
-123 104
57 -104 123
-124 -122
-124 -123
122 123 124
-125 -109
-125 -112
109 112 125
-126 -115
-126 -118
115 118 126
-127 -121
-127 -124
121 124 127
-128 125
-128 126
-125 -126 128
-129 106
-129 127
-106 -127 129
-130 128
-130 129
-128 -129 130
-131 -1
-131 -2
1 2 131
-132 -3
-132 -4
3 4 132
-133 -5
-133 -6
5 6 133
-134 -131
-134 -132
131 132 134
-135 -133
-135 134
133 -134 135
-136 130
-136 135
-130 -135 136
